p cnf 10 50
-6 3 9 0
-1 6 9 0
-7 3 9 0
-10 -8 -5 0
1 2 4 0
6 8 9 0
-7 1 9 0
-10 -1 7 0
-1 4 8 0
-10 -1 3 0
-9 -9 -5 0
-4 5 7 0
-5 -5 2 0
-9 -7 1 0
-3 -2 6 0
-9 4 9 0
2 4 7 0
-8 -2 5 0
-6 -4 -1 0
-9 2 4 0
-8 -6 -2 0
-5 -3 9 0
-8 -3 -2 0
-4 -3 -1 0
-10 -9 1 0
2 6 9 0
-7 -7 3 0
-5 -4 6 0
-8 4 6 0
-6 -5 1 0
-10 2 8 0
3 6 8 0
-6 -3 2 0
-4 6 10 0
-8 -2 10 0
-9 -1 8 0
-8 4 9 0
-5 -4 10 0
-8 -5 -1 0
-4 5 6 0
-7 -7 6 0
-2 5 10 0
-6 -5 10 0
-9 -9 8 0
-5 1 7 0
-6 4 9 0
-5 -2 4 0
-10 1 4 0
-3 1 4 0
-9 -6 4 0
